	Costo	Nv	Tiempo
1	1354,28	7	6,515
2	2317,69	13	13,672
3	2805,24	9	24,283
4	4426,6	21	54,094
5	5659,17	27	98,613
6	1523,56	7	6,655
7	2386,08	13	13,766
8	3015,3	17	24,516
9	4617,32	26	54,376
10	5469,96	24	98,065
11	4451,97	10	35,391
12	3634,24	18	23,484
13	5607,71	23	35,47
14	3544,86	17	23,313
